c generated by sgen
p cnf 77 164
-2 -3 -4 0
-1 -3 -4 0
-1 -2 -4 0
-1 -2 -3 0
-6 -7 -8 0
-5 -7 -8 0
-5 -6 -8 0
-5 -6 -7 0
-10 -11 -12 0
-9 -11 -12 0
-9 -10 -12 0
-9 -10 -11 0
-14 -15 -16 0
-13 -15 -16 0
-13 -14 -16 0
-13 -14 -15 0
-18 -19 -20 0
-17 -19 -20 0
-17 -18 -20 0
-17 -18 -19 0
-22 -23 -24 0
-21 -23 -24 0
-21 -22 -24 0
-21 -22 -23 0
-26 -27 -28 0
-25 -27 -28 0
-25 -26 -28 0
-25 -26 -27 0
-30 -31 -32 0
-29 -31 -32 0
-29 -30 -32 0
-29 -30 -31 0
-34 -35 -36 0
-33 -35 -36 0
-33 -34 -36 0
-33 -34 -35 0
-38 -39 -40 0
-37 -39 -40 0
-37 -38 -40 0
-37 -38 -39 0
-42 -43 -44 0
-41 -43 -44 0
-41 -42 -44 0
-41 -42 -43 0
-46 -47 -48 0
-45 -47 -48 0
-45 -46 -48 0
-45 -46 -47 0
-50 -51 -52 0
-49 -51 -52 0
-49 -50 -52 0
-49 -50 -51 0
-54 -55 -56 0
-53 -55 -56 0
-53 -54 -56 0
-53 -54 -55 0
-58 -59 -60 0
-57 -59 -60 0
-57 -58 -60 0
-57 -58 -59 0
-62 -63 -64 0
-61 -63 -64 0
-61 -62 -64 0
-61 -62 -63 0
-66 -67 -68 0
-65 -67 -68 0
-65 -66 -68 0
-65 -66 -67 0
-70 -71 -72 0
-69 -71 -72 0
-69 -70 -72 0
-69 -70 -71 0
-73 -74 -75 0
-73 -74 -76 0
-73 -74 -77 0
-73 -75 -76 0
-73 -75 -77 0
-73 -76 -77 0
-74 -75 -76 0
-74 -75 -77 0
-74 -76 -77 0
-75 -76 -77 0
41 63 5 0
58 63 5 0
58 41 5 0
58 41 63 0
24 31 36 0
10 31 36 0
10 24 36 0
10 24 31 0
2 77 61 0
32 77 61 0
32 2 61 0
32 2 77 0
6 51 4 0
21 51 4 0
21 6 4 0
21 6 51 0
37 1 44 0
54 1 44 0
54 37 44 0
54 37 1 0
16 40 57 0
11 40 57 0
11 16 57 0
11 16 40 0
15 50 64 0
53 50 64 0
53 15 64 0
53 15 50 0
76 66 34 0
56 66 34 0
56 76 34 0
56 76 66 0
47 9 55 0
17 9 55 0
17 47 55 0
17 47 9 0
27 39 75 0
8 39 75 0
8 27 75 0
8 27 39 0
67 45 62 0
25 45 62 0
25 67 62 0
25 67 45 0
48 74 59 0
22 74 59 0
22 48 59 0
22 48 74 0
65 72 13 0
23 72 13 0
23 65 13 0
23 65 72 0
71 49 46 0
35 49 46 0
35 71 46 0
35 71 49 0
20 14 33 0
7 14 33 0
7 20 33 0
7 20 14 0
12 42 70 0
73 42 70 0
73 12 70 0
73 12 42 0
52 43 28 0
30 43 28 0
30 52 28 0
30 52 43 0
68 18 29 0
38 18 29 0
38 68 29 0
38 68 18 0
19 26 69 0
19 26 60 0
19 26 3 0
19 69 60 0
19 69 3 0
19 60 3 0
26 69 60 0
26 69 3 0
26 60 3 0
69 60 3 0
